40
2 0 2
2 1 2
3 2 3
4 0 2
6 1 1
6 3 2
6 4 3
6 5 2
7 3 2
7 4 2
8 3 1
8 4 3
8 5 3
8 6 2
9 0 2
9 4 1
9 6 2
9 7 1
10 0 2
10 4 2
10 6 3
10 9 2
11 0 1
11 6 2
11 7 1
11 8 1
12 3 1
12 4 1
12 5 2
12 6 1
12 7 2
12 8 1
12 9 2
12 10 2
13 1 3
13 4 1
13 5 1
13 7 3
13 8 1
13 10 1
13 11 2
14 0 2
14 1 1
14 3 1
14 5 3
14 6 2
14 9 1
14 10 2
14 11 1
14 12 3
15 0 3
15 1 1
15 2 2
15 4 1
15 5 3
15 7 2
15 8 1
15 12 2
15 14 2
16 0 1
16 2 2
16 3 3
16 4 1
16 6 3
16 9 3
16 10 1
16 11 2
16 12 3
16 13 1
16 14 2
16 15 3
17 0 2
17 6 3
17 7 1
17 8 2
17 9 2
17 10 1
17 11 2
17 14 3
18 1 1
18 2 3
18 4 1
18 5 1
18 6 3
18 7 1
18 12 2
18 13 3
18 15 3
18 16 1
18 17 3
19 0 1
19 2 3
19 5 2
19 6 2
19 7 2
19 9 2
19 10 3
19 11 2
19 12 2
19 13 3
19 15 3
19 17 1
19 18 3
20 0 2
20 4 2
20 6 1
20 7 1
20 8 3
20 9 2
20 10 2
20 12 3
20 13 1
20 16 1
20 17 2
20 18 3
20 19 3
21 0 3
21 1 3
21 4 1
21 9 2
21 12 3
21 13 3
21 14 3
21 20 1
22 0 2
22 1 3
22 2 3
22 3 2
22 4 1
22 5 3
22 6 3
22 9 1
22 10 2
22 11 2
22 15 1
22 16 2
22 20 1
22 21 1
23 0 1
23 1 3
23 5 2
23 7 3
23 10 2
23 14 2
23 17 1
24 0 3
24 1 1
24 2 2
24 3 3
24 7 1
24 11 3
24 13 2
24 17 1
24 19 2
24 22 2
24 23 1
25 1 3
25 2 3
25 3 3
25 4 1
25 7 2
25 8 3
25 9 2
25 12 3
25 13 3
25 15 1
25 16 1
25 18 1
25 20 3
25 22 3
26 1 1
26 2 3
26 5 1
26 8 3
26 9 1
26 11 3
26 17 2
26 20 3
26 21 2
27 3 3
27 4 2
27 9 2
27 11 2
27 13 1
27 14 3
27 15 1
27 16 1
27 17 1
27 18 3
27 19 2
27 20 3
27 21 2
27 22 2
27 23 2
27 24 1
27 25 3
27 26 1
28 1 3
28 2 2
28 3 2
28 7 1
28 8 3
28 9 3
28 11 1
28 14 1
28 15 3
28 16 2
28 17 3
28 20 2
28 21 1
28 22 1
28 23 3
28 24 3
28 25 1
28 27 3
29 3 1
29 4 2
29 6 3
29 7 1
29 8 1
29 9 1
29 16 2
29 17 3
29 24 3
29 25 2
29 26 2
29 27 3
30 2 2
30 6 2
30 7 1
30 11 2
30 12 2
30 13 1
30 16 3
30 18 3
30 21 1
30 22 3
30 23 1
30 24 2
30 26 2
30 28 1
31 2 1
31 4 1
31 5 3
31 6 1
31 8 3
31 10 3
31 11 2
31 15 2
31 17 2
31 18 1
31 19 3
31 21 2
31 24 3
31 29 1
31 30 3
32 0 3
32 3 3
32 4 2
32 7 1
32 10 2
32 11 2
32 15 2
32 16 1
32 17 2
32 18 1
32 21 3
32 22 3
32 25 3
32 26 2
32 27 2
32 28 2
32 29 1
32 31 3
33 0 3
33 2 3
33 4 1
33 5 2
33 11 2
33 13 1
33 17 1
33 18 2
33 19 1
33 22 1
33 25 3
33 27 2
33 28 1
33 29 3
33 30 1
33 32 2
34 2 2
34 5 1
34 7 2
34 8 2
34 9 2
34 12 3
34 15 3
34 19 3
34 20 2
34 22 3
34 24 2
34 28 3
34 30 3
34 31 3
34 33 2
35 0 1
35 2 3
35 4 3
35 5 1
35 8 2
35 11 1
35 15 3
35 16 3
35 17 1
35 18 1
35 19 1
35 23 1
35 25 3
35 27 2
35 29 2
35 30 1
35 31 2
35 32 3
36 1 1
36 2 3
36 4 2
36 9 1
36 10 1
36 13 3
36 15 3
36 16 1
36 19 3
36 20 1
36 22 1
36 24 1
36 27 1
36 28 2
36 32 2
36 33 2
36 34 2
37 0 1
37 6 1
37 8 2
37 10 1
37 16 2
37 19 3
37 22 1
37 24 1
37 26 1
37 28 2
37 29 3
37 32 2
37 34 3
38 0 3
38 1 3
38 3 1
38 9 3
38 10 3
38 15 1
38 16 2
38 17 3
38 18 3
38 19 1
38 21 1
38 25 2
38 27 3
38 29 3
38 30 2
38 32 3
38 33 3
38 36 3
38 37 2
39 1 2
39 2 3
39 4 2
39 6 3
39 8 3
39 10 3
39 11 2
39 12 3
39 13 3
39 14 1
39 16 1
39 17 2
39 18 1
39 19 2
39 24 2
39 26 2
39 27 3
39 28 1
39 29 2
39 32 2
39 33 3
39 36 3
